2674226783796392935 -1 0
2411879316855600765 -2 0
h -3 0
2396922001567321986 -4 0
1573735795036743654 -5 0
h 3 0
3176989401175625006 -6 0
1614029278355508714 -7 0
3605676637980678214 -8 0
993284858941680341 -9 0
